p cnf 183 906
c p weight 12 0 0
c p weight -12 1 0
c p weight 13 1 0
c p weight -13 1 0
c p weight 18 1 0
c p weight -18 1 0
c p weight 19 0 0
c p weight -19 1 0
c p weight 24 0 0
c p weight -24 1 0
c p weight 25 1 0
c p weight -25 1 0
c p weight 30 1 0
c p weight -30 1 0
c p weight 31 0 0
c p weight -31 1 0
c p weight 34 1 0
c p weight -34 1 0
c p weight 35 0 0
c p weight -35 1 0
c p weight 38 0 0
c p weight -38 1 0
c p weight 39 1 0
c p weight -39 1 0
c p weight 42 -0.600000000000000088817841970012523233890533447265625 0
c p weight -42 1 0
c p weight 43 -0.79999999999999993338661852249060757458209991455078125 0
c p weight -43 1 0
c p weight 46 0 0
c p weight -46 1 0
c p weight 47 1 0
c p weight -47 1 0
c p weight 50 -1 0
c p weight -50 1 0
c p weight 51 0 0
c p weight -51 1 0
c p weight 54 1 0
c p weight -54 1 0
c p weight 55 0 0
c p weight -55 1 0
c p weight 61 1 0
c p weight -61 1 0
c p weight 62 0 0
c p weight -62 1 0
c p weight 65 0 0
c p weight -65 1 0
c p weight 66 1 0
c p weight -66 1 0
c p weight 69 -0.5999999999999998667732370449812151491641998291015625 0
c p weight -69 1 0
c p weight 70 0.80000000000000015543122344752191565930843353271484375 0
c p weight -70 1 0
c p weight 73 0 0
c p weight -73 1 0
c p weight 74 1 0
c p weight -74 1 0
c p weight 77 -1 0
c p weight -77 1 0
c p weight 78 0 0
c p weight -78 1 0
c p weight 84 0.70710678118654752440084436210485 0
c p weight 87 1 0
c p weight -87 1 0
c p weight 88 0 0
c p weight -88 1 0
c p weight 91 0 0
c p weight -91 1 0
c p weight 92 1 0
c p weight -92 1 0
c p weight 95 -0.600000000000000088817841970012523233890533447265625 0
c p weight -95 1 0
c p weight 96 -0.79999999999999993338661852249060757458209991455078125 0
c p weight -96 1 0
c p weight 99 0 0
c p weight -99 1 0
c p weight 100 1 0
c p weight -100 1 0
c p weight 103 -1 0
c p weight -103 1 0
c p weight 104 0 0
c p weight -104 1 0
c p weight 107 1 0
c p weight -107 1 0
c p weight 108 0 0
c p weight -108 1 0
c p weight 114 1 0
c p weight -114 1 0
c p weight 115 0 0
c p weight -115 1 0
c p weight 118 0 0
c p weight -118 1 0
c p weight 119 1 0
c p weight -119 1 0
c p weight 122 0.2800000000000000266453525910037569701671600341796875 0
c p weight -122 1 0
c p weight 123 0.95999999999999996447286321199499070644378662109375 0
c p weight -123 1 0
c p weight 126 0 0
c p weight -126 1 0
c p weight 127 1 0
c p weight -127 1 0
c p weight 130 -1 0
c p weight -130 1 0
c p weight 131 0 0
c p weight -131 1 0
c p weight 139 0 0
c p weight -139 1 0
c p weight 140 1 0
c p weight -140 1 0
c p weight 148 0.70710678118654752440084436210485 0
c p weight 156 0 0
c p weight -156 1 0
c p weight 157 1 0
c p weight -157 1 0
c p weight 162 0.70710678118654752440084436210485 0
c p weight 165 1 0
c p weight -165 1 0
c p weight 166 0 0
c p weight -166 1 0
c p weight 169 0 0
c p weight -169 1 0
c p weight 170 1 0
c p weight -170 1 0
c p weight 173 0.2800000000000000266453525910037569701671600341796875 0
c p weight -173 1 0
c p weight 174 -0.95999999999999996447286321199499070644378662109375 0
c p weight -174 1 0
c p weight 177 0 0
c p weight -177 1 0
c p weight 178 1 0
c p weight -178 1 0
c p weight 181 -1 0
c p weight -181 1 0
c p weight 182 0 0
c p weight -182 1 0
c p weight 179 -1 0
c p weight -179 1 0
c p weight 183 0.5 0
183 0
-7 0
-5 0
-3 0
-1 0
8 -7 1 0
8 -7 2 0
-8 7 1 0
-8 7 2 0
8 7 -1 -2 0
-8 -7 -1 -2 0
9 1 -2 0
9 -1 2 0
-9 1 2 0
-9 -1 -2 0
10 11 -8 0
10 -8 9 0
-10 11 8 0
-10 8 9 0
10 -8 -1 0
-10 8 -1 0
10 -11 8 1 -9 0
-10 -11 -8 1 -9 0
11 -1 9 0
-11 1 9 0
-12 9 0
11 -12 -1 0
-11 -12 1 0
11 12 1 -9 0
-11 12 -1 -9 0
-13 9 0
11 -13 1 0
-11 -13 -1 0
11 13 -1 -9 0
-11 13 1 -9 0
14 -10 11 0
14 -10 9 0
-14 10 11 0
-14 10 9 0
14 10 -11 -9 0
-14 -10 -11 -9 0
15 11 -9 0
15 -11 9 0
-15 11 9 0
-15 -11 -9 0
16 -14 11 0
16 -14 15 0
-16 14 11 0
-16 14 15 0
16 -17 -14 0
-16 -17 14 0
16 17 14 -11 -15 0
-16 17 -14 -11 -15 0
17 11 -15 0
-17 11 15 0
-18 11 0
17 -18 -15 0
-17 -18 15 0
17 18 -11 15 0
-17 18 -11 -15 0
-19 11 0
17 -19 15 0
-17 -19 -15 0
17 19 -11 -15 0
-17 19 -11 15 0
20 -16 3 0
20 -16 4 0
-20 16 3 0
-20 16 4 0
20 16 -3 -4 0
-20 -16 -3 -4 0
21 3 -4 0
21 -3 4 0
-21 3 4 0
-21 -3 -4 0
22 23 -20 0
22 -20 21 0
-22 23 20 0
-22 20 21 0
22 -20 -3 0
-22 20 -3 0
22 -23 20 3 -21 0
-22 -23 -20 3 -21 0
23 -3 21 0
-23 3 21 0
-24 21 0
23 -24 -3 0
-23 -24 3 0
23 24 3 -21 0
-23 24 -3 -21 0
-25 21 0
23 -25 3 0
-23 -25 -3 0
23 25 -3 -21 0
-23 25 3 -21 0
26 -22 23 0
26 -22 21 0
-26 22 23 0
-26 22 21 0
26 22 -23 -21 0
-26 -22 -23 -21 0
27 23 -21 0
27 -23 21 0
-27 23 21 0
-27 -23 -21 0
28 -26 23 0
28 -26 27 0
-28 26 23 0
-28 26 27 0
28 -29 -26 0
-28 -29 26 0
28 29 26 -23 -27 0
-28 29 -26 -23 -27 0
29 23 -27 0
-29 23 27 0
-30 23 0
29 -30 -27 0
-29 -30 27 0
29 30 -23 27 0
-29 30 -23 -27 0
-31 23 0
29 -31 27 0
-29 -31 -27 0
29 31 -23 -27 0
-29 31 -23 27 0
32 -28 5 0
32 -28 6 0
-32 28 5 0
-32 28 6 0
32 -33 -28 0
-32 -33 28 0
32 33 28 -5 -6 0
-32 33 -28 -5 -6 0
33 5 -6 0
-33 5 6 0
-34 5 0
33 -34 -6 0
-33 -34 6 0
33 34 -5 6 0
-33 34 -5 -6 0
-35 5 0
33 -35 6 0
-33 -35 -6 0
33 35 -5 -6 0
-33 35 -5 6 0
36 37 -32 0
36 -32 33 0
-36 37 32 0
-36 32 33 0
36 -32 -5 0
-36 32 -5 0
36 -37 32 5 -33 0
-36 -37 -32 5 -33 0
37 -5 33 0
-37 5 33 0
-38 33 0
37 -38 -5 0
-37 -38 5 0
37 38 5 -33 0
-37 38 -5 -33 0
-39 33 0
37 -39 5 0
-37 -39 -5 0
37 39 -5 -33 0
-37 39 5 -33 0
40 -36 37 0
40 -36 33 0
-40 36 37 0
-40 36 33 0
40 -41 -36 0
-40 -41 36 0
40 41 36 -37 -33 0
-40 41 -36 -37 -33 0
41 37 -33 0
-41 37 33 0
-42 37 0
41 -42 -33 0
-41 -42 33 0
41 42 -37 33 0
-41 42 -37 -33 0
-43 37 0
41 -43 33 0
-41 -43 -33 0
41 43 -37 -33 0
-41 43 -37 33 0
44 45 -40 0
44 -40 41 0
-44 45 40 0
-44 40 41 0
44 -40 -37 0
-44 40 -37 0
44 -45 40 37 -41 0
-44 -45 -40 37 -41 0
45 -37 41 0
-45 37 41 0
-46 41 0
45 -46 -37 0
-45 -46 37 0
45 46 37 -41 0
-45 46 -37 -41 0
-47 41 0
45 -47 37 0
-45 -47 -37 0
45 47 -37 -41 0
-45 47 37 -41 0
48 -44 45 0
48 -44 41 0
-48 44 45 0
-48 44 41 0
48 -49 -44 0
-48 -49 44 0
48 49 44 -45 -41 0
-48 49 -44 -45 -41 0
49 45 -41 0
-49 45 41 0
-50 45 0
49 -50 -41 0
-49 -50 41 0
49 50 -45 41 0
-49 50 -45 -41 0
-51 45 0
49 -51 41 0
-49 -51 -41 0
49 51 -45 -41 0
-49 51 -45 41 0
52 -48 45 0
52 -48 49 0
-52 48 45 0
-52 48 49 0
52 -53 -48 0
-52 -53 48 0
52 53 48 -45 -49 0
-52 53 -48 -45 -49 0
53 45 -49 0
-53 45 49 0
-54 45 0
53 -54 -49 0
-53 -54 49 0
53 54 -45 49 0
-53 54 -45 -49 0
-55 45 0
53 -55 49 0
-53 -55 -49 0
53 55 -45 -49 0
-53 55 -45 49 0
56 -52 11 0
56 -52 53 0
-56 52 11 0
-56 52 53 0
56 -52 45 -17 0
56 -52 -45 17 0
-56 52 45 -17 0
-56 52 -45 17 0
56 52 -11 45 17 -53 0
56 52 -11 -45 -17 -53 0
-56 -52 -11 45 17 -53 0
-56 -52 -11 -45 -17 -53 0
58 11 -45 0
58 -11 45 0
-58 11 45 0
-58 -11 -45 0
57 17 -53 0
57 -17 53 0
-57 17 53 0
-57 -17 -53 0
59 -56 58 0
59 -56 53 0
-59 56 58 0
-59 56 53 0
59 -60 -56 0
-59 -60 56 0
59 60 56 -58 -53 0
-59 60 -56 -58 -53 0
60 58 -53 0
-60 58 53 0
-61 58 0
60 -61 -53 0
-60 -61 53 0
60 61 -58 53 0
-60 61 -58 -53 0
-62 58 0
60 -62 53 0
-60 -62 -53 0
60 62 -58 -53 0
-60 62 -58 53 0
63 64 -59 0
63 -59 60 0
-63 64 59 0
-63 59 60 0
63 -59 -58 0
-63 59 -58 0
63 -64 59 58 -60 0
-63 -64 -59 58 -60 0
64 -58 60 0
-64 58 60 0
-65 60 0
64 -65 -58 0
-64 -65 58 0
64 65 58 -60 0
-64 65 -58 -60 0
-66 60 0
64 -66 58 0
-64 -66 -58 0
64 66 -58 -60 0
-64 66 58 -60 0
67 -63 64 0
67 -63 60 0
-67 63 64 0
-67 63 60 0
67 -68 -63 0
-67 -68 63 0
67 68 63 -64 -60 0
-67 68 -63 -64 -60 0
68 64 -60 0
-68 64 60 0
-69 64 0
68 -69 -60 0
-68 -69 60 0
68 69 -64 60 0
-68 69 -64 -60 0
-70 64 0
68 -70 60 0
-68 -70 -60 0
68 70 -64 -60 0
-68 70 -64 60 0
71 72 -67 0
71 -67 68 0
-71 72 67 0
-71 67 68 0
71 -67 -64 0
-71 67 -64 0
71 -72 67 64 -68 0
-71 -72 -67 64 -68 0
72 -64 68 0
-72 64 68 0
-73 68 0
72 -73 -64 0
-72 -73 64 0
72 73 64 -68 0
-72 73 -64 -68 0
-74 68 0
72 -74 64 0
-72 -74 -64 0
72 74 -64 -68 0
-72 74 64 -68 0
75 -71 72 0
75 -71 68 0
-75 71 72 0
-75 71 68 0
75 -76 -71 0
-75 -76 71 0
75 76 71 -72 -68 0
-75 76 -71 -72 -68 0
76 72 -68 0
-76 72 68 0
-77 72 0
76 -77 -68 0
-76 -77 68 0
76 77 -72 68 0
-76 77 -72 -68 0
-78 72 0
76 -78 68 0
-76 -78 -68 0
76 78 -72 -68 0
-76 78 -72 68 0
79 -75 11 0
79 -75 76 0
-79 75 11 0
-79 75 76 0
79 -75 72 -57 0
79 -75 -72 57 0
-79 75 72 -57 0
-79 75 -72 57 0
79 75 -11 72 57 -76 0
79 75 -11 -72 -57 -76 0
-79 -75 -11 72 57 -76 0
-79 -75 -11 -72 -57 -76 0
81 11 -72 0
81 -11 72 0
-81 11 72 0
-81 -11 -72 0
80 57 -76 0
80 -57 76 0
-80 57 76 0
-80 -57 -76 0
82 83 -79 0
82 -79 11 0
-82 83 79 0
-82 79 11 0
82 -79 -80 0
-82 79 -80 0
82 -83 79 -11 80 0
-82 -83 -79 -11 80 0
83 11 -80 0
-83 11 80 0
84 -11 0
-84 11 0
85 -82 81 0
85 -82 76 0
-85 82 81 0
-85 82 76 0
85 -86 -82 0
-85 -86 82 0
85 86 82 -81 -76 0
-85 86 -82 -81 -76 0
86 81 -76 0
-86 81 76 0
-87 81 0
86 -87 -76 0
-86 -87 76 0
86 87 -81 76 0
-86 87 -81 -76 0
-88 81 0
86 -88 76 0
-86 -88 -76 0
86 88 -81 -76 0
-86 88 -81 76 0
89 90 -85 0
89 -85 86 0
-89 90 85 0
-89 85 86 0
89 -85 -81 0
-89 85 -81 0
89 -90 85 81 -86 0
-89 -90 -85 81 -86 0
90 -81 86 0
-90 81 86 0
-91 86 0
90 -91 -81 0
-90 -91 81 0
90 91 81 -86 0
-90 91 -81 -86 0
-92 86 0
90 -92 81 0
-90 -92 -81 0
90 92 -81 -86 0
-90 92 81 -86 0
93 -89 90 0
93 -89 86 0
-93 89 90 0
-93 89 86 0
93 -94 -89 0
-93 -94 89 0
93 94 89 -90 -86 0
-93 94 -89 -90 -86 0
94 90 -86 0
-94 90 86 0
-95 90 0
94 -95 -86 0
-94 -95 86 0
94 95 -90 86 0
-94 95 -90 -86 0
-96 90 0
94 -96 86 0
-94 -96 -86 0
94 96 -90 -86 0
-94 96 -90 86 0
97 98 -93 0
97 -93 94 0
-97 98 93 0
-97 93 94 0
97 -93 -90 0
-97 93 -90 0
97 -98 93 90 -94 0
-97 -98 -93 90 -94 0
98 -90 94 0
-98 90 94 0
-99 94 0
98 -99 -90 0
-98 -99 90 0
98 99 90 -94 0
-98 99 -90 -94 0
-100 94 0
98 -100 90 0
-98 -100 -90 0
98 100 -90 -94 0
-98 100 90 -94 0
101 -97 98 0
101 -97 94 0
-101 97 98 0
-101 97 94 0
101 -102 -97 0
-101 -102 97 0
101 102 97 -98 -94 0
-101 102 -97 -98 -94 0
102 98 -94 0
-102 98 94 0
-103 98 0
102 -103 -94 0
-102 -103 94 0
102 103 -98 94 0
-102 103 -98 -94 0
-104 98 0
102 -104 94 0
-102 -104 -94 0
102 104 -98 -94 0
-102 104 -98 94 0
105 -101 98 0
105 -101 102 0
-105 101 98 0
-105 101 102 0
105 -106 -101 0
-105 -106 101 0
105 106 101 -98 -102 0
-105 106 -101 -98 -102 0
106 98 -102 0
-106 98 102 0
-107 98 0
106 -107 -102 0
-106 -107 102 0
106 107 -98 102 0
-106 107 -98 -102 0
-108 98 0
106 -108 102 0
-106 -108 -102 0
106 108 -98 -102 0
-106 108 -98 102 0
109 -105 23 0
109 -105 106 0
-109 105 23 0
-109 105 106 0
109 -105 98 -29 0
109 -105 -98 29 0
-109 105 98 -29 0
-109 105 -98 29 0
109 105 -23 98 29 -106 0
109 105 -23 -98 -29 -106 0
-109 -105 -23 98 29 -106 0
-109 -105 -23 -98 -29 -106 0
111 23 -98 0
111 -23 98 0
-111 23 98 0
-111 -23 -98 0
110 29 -106 0
110 -29 106 0
-110 29 106 0
-110 -29 -106 0
112 -109 111 0
112 -109 106 0
-112 109 111 0
-112 109 106 0
112 -113 -109 0
-112 -113 109 0
112 113 109 -111 -106 0
-112 113 -109 -111 -106 0
113 111 -106 0
-113 111 106 0
-114 111 0
113 -114 -106 0
-113 -114 106 0
113 114 -111 106 0
-113 114 -111 -106 0
-115 111 0
113 -115 106 0
-113 -115 -106 0
113 115 -111 -106 0
-113 115 -111 106 0
116 117 -112 0
116 -112 113 0
-116 117 112 0
-116 112 113 0
116 -112 -111 0
-116 112 -111 0
116 -117 112 111 -113 0
-116 -117 -112 111 -113 0
117 -111 113 0
-117 111 113 0
-118 113 0
117 -118 -111 0
-117 -118 111 0
117 118 111 -113 0
-117 118 -111 -113 0
-119 113 0
117 -119 111 0
-117 -119 -111 0
117 119 -111 -113 0
-117 119 111 -113 0
120 -116 117 0
120 -116 113 0
-120 116 117 0
-120 116 113 0
120 -121 -116 0
-120 -121 116 0
120 121 116 -117 -113 0
-120 121 -116 -117 -113 0
121 117 -113 0
-121 117 113 0
-122 117 0
121 -122 -113 0
-121 -122 113 0
121 122 -117 113 0
-121 122 -117 -113 0
-123 117 0
121 -123 113 0
-121 -123 -113 0
121 123 -117 -113 0
-121 123 -117 113 0
124 125 -120 0
124 -120 121 0
-124 125 120 0
-124 120 121 0
124 -120 -117 0
-124 120 -117 0
124 -125 120 117 -121 0
-124 -125 -120 117 -121 0
125 -117 121 0
-125 117 121 0
-126 121 0
125 -126 -117 0
-125 -126 117 0
125 126 117 -121 0
-125 126 -117 -121 0
-127 121 0
125 -127 117 0
-125 -127 -117 0
125 127 -117 -121 0
-125 127 117 -121 0
128 -124 125 0
128 -124 121 0
-128 124 125 0
-128 124 121 0
128 -129 -124 0
-128 -129 124 0
128 129 124 -125 -121 0
-128 129 -124 -125 -121 0
129 125 -121 0
-129 125 121 0
-130 125 0
129 -130 -121 0
-129 -130 121 0
129 130 -125 121 0
-129 130 -125 -121 0
-131 125 0
129 -131 121 0
-129 -131 -121 0
129 131 -125 -121 0
-129 131 -125 121 0
132 -128 23 0
132 -128 129 0
-132 128 23 0
-132 128 129 0
132 -128 125 -110 0
132 -128 -125 110 0
-132 128 125 -110 0
-132 128 -125 110 0
132 128 -23 125 110 -129 0
132 128 -23 -125 -110 -129 0
-132 -128 -23 125 110 -129 0
-132 -128 -23 -125 -110 -129 0
134 23 -125 0
134 -23 125 0
-134 23 125 0
-134 -23 -125 0
133 110 -129 0
133 -110 129 0
-133 110 129 0
-133 -110 -129 0
135 -132 23 0
135 -132 133 0
-135 132 23 0
-135 132 133 0
135 132 -23 -133 0
-135 -132 -23 -133 0
136 23 -133 0
136 -23 133 0
-136 23 133 0
-136 -23 -133 0
137 138 -135 0
137 -135 136 0
-137 138 135 0
-137 135 136 0
137 -135 -23 0
-137 135 -23 0
137 -138 135 23 -136 0
-137 -138 -135 23 -136 0
138 -23 136 0
-138 23 136 0
-139 136 0
138 -139 -23 0
-138 -139 23 0
138 139 23 -136 0
-138 139 -23 -136 0
-140 136 0
138 -140 23 0
-138 -140 -23 0
138 140 -23 -136 0
-138 140 23 -136 0
141 -137 138 0
141 -137 136 0
-141 137 138 0
-141 137 136 0
141 137 -138 -136 0
-141 -137 -138 -136 0
142 138 -136 0
142 -138 136 0
-142 138 136 0
-142 -138 -136 0
143 -141 11 0
143 -141 142 0
-143 141 11 0
-143 141 142 0
143 -141 138 -83 0
143 -141 -138 83 0
-143 141 138 -83 0
-143 141 -138 83 0
143 141 -11 138 83 -142 0
143 141 -11 -138 -83 -142 0
-143 -141 -11 138 83 -142 0
-143 -141 -11 -138 -83 -142 0
145 11 -138 0
145 -11 138 0
-145 11 138 0
-145 -11 -138 0
144 83 -142 0
144 -83 142 0
-144 83 142 0
-144 -83 -142 0
146 -143 145 0
146 -143 142 0
-146 143 145 0
-146 143 142 0
146 -147 -143 0
-146 -147 143 0
146 147 143 -145 -142 0
-146 147 -143 -145 -142 0
147 145 -142 0
-147 145 142 0
148 -145 0
-148 145 0
149 -146 11 0
149 -146 147 0
-149 146 11 0
-149 146 147 0
149 -146 145 -144 0
149 -146 -145 144 0
-149 146 145 -144 0
-149 146 -145 144 0
149 146 -11 145 144 -147 0
149 146 -11 -145 -144 -147 0
-149 -146 -11 145 144 -147 0
-149 -146 -11 -145 -144 -147 0
151 11 -145 0
151 -11 145 0
-151 11 145 0
-151 -11 -145 0
150 144 -147 0
150 -144 147 0
-150 144 147 0
-150 -144 -147 0
152 -149 11 0
152 -149 150 0
-152 149 11 0
-152 149 150 0
152 149 -11 -150 0
-152 -149 -11 -150 0
153 11 -150 0
153 -11 150 0
-153 11 150 0
-153 -11 -150 0
154 155 -152 0
154 -152 153 0
-154 155 152 0
-154 152 153 0
154 -152 -11 0
-154 152 -11 0
154 -155 152 11 -153 0
-154 -155 -152 11 -153 0
155 -11 153 0
-155 11 153 0
-156 153 0
155 -156 -11 0
-155 -156 11 0
155 156 11 -153 0
-155 156 -11 -153 0
-157 153 0
155 -157 11 0
-155 -157 -11 0
155 157 -11 -153 0
-155 157 11 -153 0
158 -154 155 0
158 -154 153 0
-158 154 155 0
-158 154 153 0
158 154 -155 -153 0
-158 -154 -155 -153 0
159 155 -153 0
159 -155 153 0
-159 155 153 0
-159 -155 -153 0
160 161 -158 0
160 -158 151 0
-160 161 158 0
-160 158 151 0
160 -158 -147 0
-160 158 -147 0
160 -161 158 -151 147 0
-160 -161 -158 -151 147 0
161 151 -147 0
-161 151 147 0
162 -151 0
-162 151 0
163 -160 134 0
163 -160 129 0
-163 160 134 0
-163 160 129 0
163 -164 -160 0
-163 -164 160 0
163 164 160 -134 -129 0
-163 164 -160 -134 -129 0
164 134 -129 0
-164 134 129 0
-165 134 0
164 -165 -129 0
-164 -165 129 0
164 165 -134 129 0
-164 165 -134 -129 0
-166 134 0
164 -166 129 0
-164 -166 -129 0
164 166 -134 -129 0
-164 166 -134 129 0
167 168 -163 0
167 -163 164 0
-167 168 163 0
-167 163 164 0
167 -163 -134 0
-167 163 -134 0
167 -168 163 134 -164 0
-167 -168 -163 134 -164 0
168 -134 164 0
-168 134 164 0
-169 164 0
168 -169 -134 0
-168 -169 134 0
168 169 134 -164 0
-168 169 -134 -164 0
-170 164 0
168 -170 134 0
-168 -170 -134 0
168 170 -134 -164 0
-168 170 134 -164 0
171 -167 168 0
171 -167 164 0
-171 167 168 0
-171 167 164 0
171 -172 -167 0
-171 -172 167 0
171 172 167 -168 -164 0
-171 172 -167 -168 -164 0
172 168 -164 0
-172 168 164 0
-173 168 0
172 -173 -164 0
-172 -173 164 0
172 173 -168 164 0
-172 173 -168 -164 0
-174 168 0
172 -174 164 0
-172 -174 -164 0
172 174 -168 -164 0
-172 174 -168 164 0
175 176 -171 0
175 -171 172 0
-175 176 171 0
-175 171 172 0
175 -171 -168 0
-175 171 -168 0
175 -176 171 168 -172 0
-175 -176 -171 168 -172 0
176 -168 172 0
-176 168 172 0
-177 172 0
176 -177 -168 0
-176 -177 168 0
176 177 168 -172 0
-176 177 -168 -172 0
-178 172 0
176 -178 168 0
-176 -178 -168 0
176 178 -168 -172 0
-176 178 168 -172 0
179 -175 176 0
179 -175 172 0
-179 175 176 0
-179 175 172 0
179 -180 -175 0
-179 -180 175 0
179 180 175 -176 -172 0
-179 180 -175 -176 -172 0
180 176 -172 0
-180 176 172 0
-181 176 0
180 -181 -172 0
-180 -181 172 0
180 181 -176 172 0
-180 181 -176 -172 0
-182 176 0
180 -182 172 0
-180 -182 -172 0
180 182 -176 -172 0
-180 182 -176 172 0
-155 0
-151 0
-161 0
-176 0
-180 0
